NAME: eil101_76_25_0
COMMENT: 101-city problem (Christofides/Eilon). FACILITY = 1, USER = 0
TYPE: TSP
DIMENSION: 101
EDGE_WEIGHT_TYPE: EUC_2D
NODE_COORD_SECTION:
1 41 49 0
2 35 17 0
3 55 45 0
4 55 20 0
5 15 30 1
6 25 30 0
7 20 50 0
8 10 43 1
9 55 60 0
10 30 60 1
11 20 65 0
12 50 35 0
13 30 25 0
14 15 10 1
15 30 5 0
16 10 20 0
17 5 30 0
18 20 40 1
19 15 60 1
20 45 65 0
21 45 20 0
22 45 10 0
23 55 5 1
24 65 35 1
25 65 20 0
26 45 30 0
27 35 40 1
28 41 37 0
29 64 42 0
30 40 60 0
31 31 52 0
32 35 69 1
33 53 52 0
34 65 55 0
35 63 65 0
36 2 60 0
37 20 20 1
38 5 5 1
39 60 12 0
40 40 25 0
41 42 7 0
42 24 12 1
43 23 3 0
44 11 14 0
45 6 38 0
46 2 48 0
47 8 56 0
48 13 52 0
49 6 68 0
50 47 47 0
51 49 58 1
52 27 43 1
53 37 31 0
54 57 29 0
55 63 23 0
56 53 12 0
57 32 12 1
58 36 26 1
59 21 24 0
60 17 34 0
61 12 24 0
62 24 58 0
63 27 69 0
64 15 77 0
65 62 77 0
66 49 73 0
67 67 5 0
68 56 39 0
69 37 47 1
70 37 56 1
71 57 68 0
72 47 16 0
73 44 17 0
74 46 13 0
75 49 11 0
76 49 42 0
77 53 43 0
78 61 52 0
79 57 48 0
80 56 37 1
81 55 54 0
82 15 47 1
83 14 37 0
84 11 31 0
85 16 22 0
86 4 18 0
87 28 18 0
88 26 52 0
89 26 35 0
90 31 67 0
91 15 19 1
92 22 22 0
93 18 24 0
94 26 27 0
95 25 24 1
96 22 27 0
97 25 21 1
98 19 21 0
99 20 26 0
100 18 18 1
101 35 35 0
EOF